[[60, 59, 61, 62, 69, 70, 71, 72, 81, 80, 79, 88, 89, 90], [99, 98, 97, 96, 87, 86, 95, 94, 93, 92, 91], [82, 83, 73, 84, 85, 76, 77, 78, 68, 67, 75, 66, 74, 65, 64, 56, 58, 57], [55, 46, 47, 49, 48, 38, 39, 40, 50, 41, 33, 32, 31, 30], [29, 37, 28, 19, 20, 11, 10, 2, 3, 4, 12, 13, 21, 22], [23, 15, 14, 5, 6, 7, 8, 9, 18, 17, 16, 24, 25, 26], [27, 35, 36, 44, 34, 43, 42, 45, 54, 63, 53, 51, 52]]